DATASET = "thpack6";
INSTANCE = "012";

WIDTH = 233;
HEIGHT = 220;
LENGTH = 587;

NO_OF_SHAPES = 15;
size = [|
  95,80,57 |
  112,87,23 |
  116,41,40 |
  98,80,56 |
  108,60,59 |
  82,77,67 |
  67,46,36 |
  104,72,44 |
  89,56,24 |
  64,36,36 |
  101,86,31 |
  69,65,37 |
  106,39,22 |
  100,58,37 |
  56,53,35 |
|];

verticality = [|
  1,1,1 |
  0,0,1 |
  0,1,1 |
  1,1,1 |
  1,1,1 |
  1,1,1 |
  1,1,1 |
  0,1,1 |
  0,0,1 |
  1,1,1 |
  0,0,1 |
  1,1,1 |
  0,1,1 |
  0,1,1 |
  1,1,1 |
|];

box_count = [
  7,
  11,
  8,
  10,
  7,
  12,
  6,
  7,
  8,
  6,
  4,
  7,
  11,
  12,
  6,
];
